logs/drand/max/drand-10-075-1.lp
\ LP format - for model browsing. Use MPS format to capture full model detail.
Maximize
  x0,1_2 + x0,1_4 + x0,1_17 + x0,1_19 + x0,1_20 + x0,1_40 + x0,1_45
   + x0,1_55 + x0,1_70 + x0,1_72 + x0,2_2 + x0,2_4 + x0,2_17 + x0,2_19
   + x0,2_20 + x0,2_40 + x0,2_45 + x0,2_55 + x0,2_70 + x0,2_72 + x0,3_2
   + x0,3_4 + x0,3_17 + x0,3_19 + x0,3_20 + x0,3_40 + x0,3_45 + x0,3_55
   + x0,3_70 + x0,3_72 + x0,4_2 + x0,4_4 + x0,4_17 + x0,4_19 + x0,4_20
   + x0,4_40 + x0,4_45 + x0,4_55 + x0,4_70 + x0,4_72 + x0,5_2 + x0,5_4
   + x0,5_17 + x0,5_19 + x0,5_20 + x0,5_40 + x0,5_45 + x0,5_55 + x0,5_70
   + x0,5_72 + x0,6_2 + x0,6_4 + x0,6_17 + x0,6_19 + x0,6_20 + x0,6_40
   + x0,6_45 + x0,6_55 + x0,6_70 + x0,6_72 + x1,2_2 + x1,2_4 + x1,2_17
   + x1,2_19 + x1,2_20 + x1,2_40 + x1,2_45 + x1,2_55 + x1,2_70 + x1,2_72
   + x1,3_2 + x1,3_4 + x1,3_17 + x1,3_19 + x1,3_20 + x1,3_40 + x1,3_45
   + x1,3_55 + x1,3_70 + x1,3_72 + x1,4_2 + x1,4_4 + x1,4_17 + x1,4_19
   + x1,4_20 + x1,4_40 + x1,4_45 + x1,4_55 + x1,4_70 + x1,4_72 + x1,5_2
   + x1,5_4 + x1,5_17 + x1,5_19 + x1,5_20 + x1,5_40 + x1,5_45 + x1,5_55
   + x1,5_70 + x1,5_72 + x1,6_2 + x1,6_4 + x1,6_17 + x1,6_19 + x1,6_20
   + x1,6_40 + x1,6_45 + x1,6_55 + x1,6_70 + x1,6_72 + x2,3_2 + x2,3_4
   + x2,3_17 + x2,3_19 + x2,3_20 + x2,3_40 + x2,3_45 + x2,3_55 + x2,3_70
   + x2,3_72 + x2,4_2 + x2,4_4 + x2,4_17 + x2,4_19 + x2,4_20 + x2,4_40
   + x2,4_45 + x2,4_55 + x2,4_70 + x2,4_72 + x2,5_2 + x2,5_4 + x2,5_17
   + x2,5_19 + x2,5_20 + x2,5_40 + x2,5_45 + x2,5_55 + x2,5_70 + x2,5_72
   + x2,6_2 + x2,6_4 + x2,6_17 + x2,6_19 + x2,6_20 + x2,6_40 + x2,6_45
   + x2,6_55 + x2,6_70 + x2,6_72 + x3,4_2 + x3,4_4 + x3,4_17 + x3,4_19
   + x3,4_20 + x3,4_40 + x3,4_45 + x3,4_55 + x3,4_70 + x3,4_72 + x3,5_2
   + x3,5_4 + x3,5_17 + x3,5_19 + x3,5_20 + x3,5_40 + x3,5_45 + x3,5_55
   + x3,5_70 + x3,5_72 + x3,6_2 + x3,6_4 + x3,6_17 + x3,6_19 + x3,6_20
   + x3,6_40 + x3,6_45 + x3,6_55 + x3,6_70 + x3,6_72 + x4,5_2 + x4,5_4
   + x4,5_17 + x4,5_19 + x4,5_20 + x4,5_40 + x4,5_45 + x4,5_55 + x4,5_70
   + x4,5_72 + x4,6_2 + x4,6_4 + x4,6_17 + x4,6_19 + x4,6_20 + x4,6_40
   + x4,6_45 + x4,6_55 + x4,6_70 + x4,6_72 + x5,6_2 + x5,6_4 + x5,6_17
   + x5,6_19 + x5,6_20 + x5,6_40 + x5,6_45 + x5,6_55 + x5,6_70 + x5,6_72
Subject To
 R0: x0,1_2 + x0,2_2 + x0,3_2 + x0,4_2 + x0,5_2 + x0,6_2 + x1,2_2 + x1,3_2
   + x1,4_2 + x1,5_2 + x1,6_2 + x2,3_2 + x2,4_2 + x2,5_2 + x2,6_2 + x3,4_2
   + x3,5_2 + x3,6_2 + x4,5_2 + x4,6_2 + x5,6_2 <= 1
 R1: x0,1_4 + x0,2_4 + x0,3_4 + x0,4_4 + x0,5_4 + x0,6_4 + x1,2_4 + x1,3_4
   + x1,4_4 + x1,5_4 + x1,6_4 + x2,3_4 + x2,4_4 + x2,5_4 + x2,6_4 + x3,4_4
   + x3,5_4 + x3,6_4 + x4,5_4 + x4,6_4 + x5,6_4 <= 1
 R2: x0,1_17 + x0,2_17 + x0,3_17 + x0,4_17 + x0,5_17 + x0,6_17 + x1,2_17
   + x1,3_17 + x1,4_17 + x1,5_17 + x1,6_17 + x2,3_17 + x2,4_17 + x2,5_17
   + x2,6_17 + x3,4_17 + x3,5_17 + x3,6_17 + x4,5_17 + x4,6_17 + x5,6_17
   <= 1
 R3: x0,1_19 + x0,2_19 + x0,3_19 + x0,4_19 + x0,5_19 + x0,6_19 + x1,2_19
   + x1,3_19 + x1,4_19 + x1,5_19 + x1,6_19 + x2,3_19 + x2,4_19 + x2,5_19
   + x2,6_19 + x3,4_19 + x3,5_19 + x3,6_19 + x4,5_19 + x4,6_19 + x5,6_19
   <= 1
 R4: x0,1_20 + x0,2_20 + x0,3_20 + x0,4_20 + x0,5_20 + x0,6_20 + x1,2_20
   + x1,3_20 + x1,4_20 + x1,5_20 + x1,6_20 + x2,3_20 + x2,4_20 + x2,5_20
   + x2,6_20 + x3,4_20 + x3,5_20 + x3,6_20 + x4,5_20 + x4,6_20 + x5,6_20
   <= 1
 R5: x0,1_40 + x0,2_40 + x0,3_40 + x0,4_40 + x0,5_40 + x0,6_40 + x1,2_40
   + x1,3_40 + x1,4_40 + x1,5_40 + x1,6_40 + x2,3_40 + x2,4_40 + x2,5_40
   + x2,6_40 + x3,4_40 + x3,5_40 + x3,6_40 + x4,5_40 + x4,6_40 + x5,6_40
   <= 1
 R6: x0,1_45 + x0,2_45 + x0,3_45 + x0,4_45 + x0,5_45 + x0,6_45 + x1,2_45
   + x1,3_45 + x1,4_45 + x1,5_45 + x1,6_45 + x2,3_45 + x2,4_45 + x2,5_45
   + x2,6_45 + x3,4_45 + x3,5_45 + x3,6_45 + x4,5_45 + x4,6_45 + x5,6_45
   <= 1
 R7: x0,1_55 + x0,2_55 + x0,3_55 + x0,4_55 + x0,5_55 + x0,6_55 + x1,2_55
   + x1,3_55 + x1,4_55 + x1,5_55 + x1,6_55 + x2,3_55 + x2,4_55 + x2,5_55
   + x2,6_55 + x3,4_55 + x3,5_55 + x3,6_55 + x4,5_55 + x4,6_55 + x5,6_55
   <= 1
 R8: x0,1_70 + x0,2_70 + x0,3_70 + x0,4_70 + x0,5_70 + x0,6_70 + x1,2_70
   + x1,3_70 + x1,4_70 + x1,5_70 + x1,6_70 + x2,3_70 + x2,4_70 + x2,5_70
   + x2,6_70 + x3,4_70 + x3,5_70 + x3,6_70 + x4,5_70 + x4,6_70 + x5,6_70
   <= 1
 R9: x0,1_72 + x0,2_72 + x0,3_72 + x0,4_72 + x0,5_72 + x0,6_72 + x1,2_72
   + x1,3_72 + x1,4_72 + x1,5_72 + x1,6_72 + x2,3_72 + x2,4_72 + x2,5_72
   + x2,6_72 + x3,4_72 + x3,5_72 + x3,6_72 + x4,5_72 + x4,6_72 + x5,6_72
   <= 1
 R10: x0,1_2 + x0,1_4 + x0,1_17 + x0,1_19 + x0,1_20 + x0,1_40 + x0,1_45
   + x0,1_55 + x0,1_70 + x0,1_72 <= 1
 R11: x0,2_2 + x0,2_4 + x0,2_17 + x0,2_19 + x0,2_20 + x0,2_40 + x0,2_45
   + x0,2_55 + x0,2_70 + x0,2_72 <= 1
 R12: x0,3_2 + x0,3_4 + x0,3_17 + x0,3_19 + x0,3_20 + x0,3_40 + x0,3_45
   + x0,3_55 + x0,3_70 + x0,3_72 <= 1
 R13: x0,4_2 + x0,4_4 + x0,4_17 + x0,4_19 + x0,4_20 + x0,4_40 + x0,4_45
   + x0,4_55 + x0,4_70 + x0,4_72 <= 1
 R14: x0,5_2 + x0,5_4 + x0,5_17 + x0,5_19 + x0,5_20 + x0,5_40 + x0,5_45
   + x0,5_55 + x0,5_70 + x0,5_72 <= 1
 R15: x0,6_2 + x0,6_4 + x0,6_17 + x0,6_19 + x0,6_20 + x0,6_40 + x0,6_45
   + x0,6_55 + x0,6_70 + x0,6_72 <= 1
 R16: x1,2_2 + x1,2_4 + x1,2_17 + x1,2_19 + x1,2_20 + x1,2_40 + x1,2_45
   + x1,2_55 + x1,2_70 + x1,2_72 <= 1
 R17: x1,3_2 + x1,3_4 + x1,3_17 + x1,3_19 + x1,3_20 + x1,3_40 + x1,3_45
   + x1,3_55 + x1,3_70 + x1,3_72 <= 1
 R18: x1,4_2 + x1,4_4 + x1,4_17 + x1,4_19 + x1,4_20 + x1,4_40 + x1,4_45
   + x1,4_55 + x1,4_70 + x1,4_72 <= 1
 R19: x1,5_2 + x1,5_4 + x1,5_17 + x1,5_19 + x1,5_20 + x1,5_40 + x1,5_45
   + x1,5_55 + x1,5_70 + x1,5_72 <= 1
 R20: x1,6_2 + x1,6_4 + x1,6_17 + x1,6_19 + x1,6_20 + x1,6_40 + x1,6_45
   + x1,6_55 + x1,6_70 + x1,6_72 <= 1
 R21: x2,3_2 + x2,3_4 + x2,3_17 + x2,3_19 + x2,3_20 + x2,3_40 + x2,3_45
   + x2,3_55 + x2,3_70 + x2,3_72 <= 1
 R22: x2,4_2 + x2,4_4 + x2,4_17 + x2,4_19 + x2,4_20 + x2,4_40 + x2,4_45
   + x2,4_55 + x2,4_70 + x2,4_72 <= 1
 R23: x2,5_2 + x2,5_4 + x2,5_17 + x2,5_19 + x2,5_20 + x2,5_40 + x2,5_45
   + x2,5_55 + x2,5_70 + x2,5_72 <= 1
 R24: x2,6_2 + x2,6_4 + x2,6_17 + x2,6_19 + x2,6_20 + x2,6_40 + x2,6_45
   + x2,6_55 + x2,6_70 + x2,6_72 <= 1
 R25: x3,4_2 + x3,4_4 + x3,4_17 + x3,4_19 + x3,4_20 + x3,4_40 + x3,4_45
   + x3,4_55 + x3,4_70 + x3,4_72 <= 1
 R26: x3,5_2 + x3,5_4 + x3,5_17 + x3,5_19 + x3,5_20 + x3,5_40 + x3,5_45
   + x3,5_55 + x3,5_70 + x3,5_72 <= 1
 R27: x3,6_2 + x3,6_4 + x3,6_17 + x3,6_19 + x3,6_20 + x3,6_40 + x3,6_45
   + x3,6_55 + x3,6_70 + x3,6_72 <= 1
 R28: x4,5_2 + x4,5_4 + x4,5_17 + x4,5_19 + x4,5_20 + x4,5_40 + x4,5_45
   + x4,5_55 + x4,5_70 + x4,5_72 <= 1
 R29: x4,6_2 + x4,6_4 + x4,6_17 + x4,6_19 + x4,6_20 + x4,6_40 + x4,6_45
   + x4,6_55 + x4,6_70 + x4,6_72 <= 1
 R30: x5,6_2 + x5,6_4 + x5,6_17 + x5,6_19 + x5,6_20 + x5,6_40 + x5,6_45
   + x5,6_55 + x5,6_70 + x5,6_72 <= 1
 R31: p0 - p1 <= -1
 R32: - 2 x0,1_2 - p0 + p1 >= 0
 R33: 344 x0,1_2 - p0 + p1 <= 346
 R34: - 4 x0,1_4 - p0 + p1 >= 0
 R35: 344 x0,1_4 - p0 + p1 <= 348
 R36: - 17 x0,1_17 - p0 + p1 >= 0
 R37: 344 x0,1_17 - p0 + p1 <= 361
 R38: - 19 x0,1_19 - p0 + p1 >= 0
 R39: 344 x0,1_19 - p0 + p1 <= 363
 R40: - 20 x0,1_20 - p0 + p1 >= 0
 R41: 344 x0,1_20 - p0 + p1 <= 364
 R42: - 40 x0,1_40 - p0 + p1 >= 0
 R43: 344 x0,1_40 - p0 + p1 <= 384
 R44: - 45 x0,1_45 - p0 + p1 >= 0
 R45: 344 x0,1_45 - p0 + p1 <= 389
 R46: - 55 x0,1_55 - p0 + p1 >= 0
 R47: 344 x0,1_55 - p0 + p1 <= 399
 R48: - 70 x0,1_70 - p0 + p1 >= 0
 R49: 344 x0,1_70 - p0 + p1 <= 414
 R50: - 72 x0,1_72 - p0 + p1 >= 0
 R51: 344 x0,1_72 - p0 + p1 <= 416
 R52: p0 - p2 <= -1
 R53: - 2 x0,2_2 - p0 + p2 >= 0
 R54: 344 x0,2_2 - p0 + p2 <= 346
 R55: - 4 x0,2_4 - p0 + p2 >= 0
 R56: 344 x0,2_4 - p0 + p2 <= 348
 R57: - 17 x0,2_17 - p0 + p2 >= 0
 R58: 344 x0,2_17 - p0 + p2 <= 361
 R59: - 19 x0,2_19 - p0 + p2 >= 0
 R60: 344 x0,2_19 - p0 + p2 <= 363
 R61: - 20 x0,2_20 - p0 + p2 >= 0
 R62: 344 x0,2_20 - p0 + p2 <= 364
 R63: - 40 x0,2_40 - p0 + p2 >= 0
 R64: 344 x0,2_40 - p0 + p2 <= 384
 R65: - 45 x0,2_45 - p0 + p2 >= 0
 R66: 344 x0,2_45 - p0 + p2 <= 389
 R67: - 55 x0,2_55 - p0 + p2 >= 0
 R68: 344 x0,2_55 - p0 + p2 <= 399
 R69: - 70 x0,2_70 - p0 + p2 >= 0
 R70: 344 x0,2_70 - p0 + p2 <= 414
 R71: - 72 x0,2_72 - p0 + p2 >= 0
 R72: 344 x0,2_72 - p0 + p2 <= 416
 R73: p0 - p3 <= -1
 R74: - 2 x0,3_2 - p0 + p3 >= 0
 R75: 344 x0,3_2 - p0 + p3 <= 346
 R76: - 4 x0,3_4 - p0 + p3 >= 0
 R77: 344 x0,3_4 - p0 + p3 <= 348
 R78: - 17 x0,3_17 - p0 + p3 >= 0
 R79: 344 x0,3_17 - p0 + p3 <= 361
 R80: - 19 x0,3_19 - p0 + p3 >= 0
 R81: 344 x0,3_19 - p0 + p3 <= 363
 R82: - 20 x0,3_20 - p0 + p3 >= 0
 R83: 344 x0,3_20 - p0 + p3 <= 364
 R84: - 40 x0,3_40 - p0 + p3 >= 0
 R85: 344 x0,3_40 - p0 + p3 <= 384
 R86: - 45 x0,3_45 - p0 + p3 >= 0
 R87: 344 x0,3_45 - p0 + p3 <= 389
 R88: - 55 x0,3_55 - p0 + p3 >= 0
 R89: 344 x0,3_55 - p0 + p3 <= 399
 R90: - 70 x0,3_70 - p0 + p3 >= 0
 R91: 344 x0,3_70 - p0 + p3 <= 414
 R92: - 72 x0,3_72 - p0 + p3 >= 0
 R93: 344 x0,3_72 - p0 + p3 <= 416
 R94: p0 - p4 <= -1
 R95: - 2 x0,4_2 - p0 + p4 >= 0
 R96: 344 x0,4_2 - p0 + p4 <= 346
 R97: - 4 x0,4_4 - p0 + p4 >= 0
 R98: 344 x0,4_4 - p0 + p4 <= 348
 R99: - 17 x0,4_17 - p0 + p4 >= 0
 R100: 344 x0,4_17 - p0 + p4 <= 361
 R101: - 19 x0,4_19 - p0 + p4 >= 0
 R102: 344 x0,4_19 - p0 + p4 <= 363
 R103: - 20 x0,4_20 - p0 + p4 >= 0
 R104: 344 x0,4_20 - p0 + p4 <= 364
 R105: - 40 x0,4_40 - p0 + p4 >= 0
 R106: 344 x0,4_40 - p0 + p4 <= 384
 R107: - 45 x0,4_45 - p0 + p4 >= 0
 R108: 344 x0,4_45 - p0 + p4 <= 389
 R109: - 55 x0,4_55 - p0 + p4 >= 0
 R110: 344 x0,4_55 - p0 + p4 <= 399
 R111: - 70 x0,4_70 - p0 + p4 >= 0
 R112: 344 x0,4_70 - p0 + p4 <= 414
 R113: - 72 x0,4_72 - p0 + p4 >= 0
 R114: 344 x0,4_72 - p0 + p4 <= 416
 R115: p0 - p5 <= -1
 R116: - 2 x0,5_2 - p0 + p5 >= 0
 R117: 344 x0,5_2 - p0 + p5 <= 346
 R118: - 4 x0,5_4 - p0 + p5 >= 0
 R119: 344 x0,5_4 - p0 + p5 <= 348
 R120: - 17 x0,5_17 - p0 + p5 >= 0
 R121: 344 x0,5_17 - p0 + p5 <= 361
 R122: - 19 x0,5_19 - p0 + p5 >= 0
 R123: 344 x0,5_19 - p0 + p5 <= 363
 R124: - 20 x0,5_20 - p0 + p5 >= 0
 R125: 344 x0,5_20 - p0 + p5 <= 364
 R126: - 40 x0,5_40 - p0 + p5 >= 0
 R127: 344 x0,5_40 - p0 + p5 <= 384
 R128: - 45 x0,5_45 - p0 + p5 >= 0
 R129: 344 x0,5_45 - p0 + p5 <= 389
 R130: - 55 x0,5_55 - p0 + p5 >= 0
 R131: 344 x0,5_55 - p0 + p5 <= 399
 R132: - 70 x0,5_70 - p0 + p5 >= 0
 R133: 344 x0,5_70 - p0 + p5 <= 414
 R134: - 72 x0,5_72 - p0 + p5 >= 0
 R135: 344 x0,5_72 - p0 + p5 <= 416
 R136: p0 - p6 <= -1
 R137: - 2 x0,6_2 - p0 + p6 >= 0
 R138: 344 x0,6_2 - p0 + p6 <= 346
 R139: - 4 x0,6_4 - p0 + p6 >= 0
 R140: 344 x0,6_4 - p0 + p6 <= 348
 R141: - 17 x0,6_17 - p0 + p6 >= 0
 R142: 344 x0,6_17 - p0 + p6 <= 361
 R143: - 19 x0,6_19 - p0 + p6 >= 0
 R144: 344 x0,6_19 - p0 + p6 <= 363
 R145: - 20 x0,6_20 - p0 + p6 >= 0
 R146: 344 x0,6_20 - p0 + p6 <= 364
 R147: - 40 x0,6_40 - p0 + p6 >= 0
 R148: 344 x0,6_40 - p0 + p6 <= 384
 R149: - 45 x0,6_45 - p0 + p6 >= 0
 R150: 344 x0,6_45 - p0 + p6 <= 389
 R151: - 55 x0,6_55 - p0 + p6 >= 0
 R152: 344 x0,6_55 - p0 + p6 <= 399
 R153: - 70 x0,6_70 - p0 + p6 >= 0
 R154: 344 x0,6_70 - p0 + p6 <= 414
 R155: - 72 x0,6_72 - p0 + p6 >= 0
 R156: 344 x0,6_72 - p0 + p6 <= 416
 R157: p1 - p2 <= -1
 R158: - 2 x1,2_2 - p1 + p2 >= 0
 R159: 344 x1,2_2 - p1 + p2 <= 346
 R160: - 4 x1,2_4 - p1 + p2 >= 0
 R161: 344 x1,2_4 - p1 + p2 <= 348
 R162: - 17 x1,2_17 - p1 + p2 >= 0
 R163: 344 x1,2_17 - p1 + p2 <= 361
 R164: - 19 x1,2_19 - p1 + p2 >= 0
 R165: 344 x1,2_19 - p1 + p2 <= 363
 R166: - 20 x1,2_20 - p1 + p2 >= 0
 R167: 344 x1,2_20 - p1 + p2 <= 364
 R168: - 40 x1,2_40 - p1 + p2 >= 0
 R169: 344 x1,2_40 - p1 + p2 <= 384
 R170: - 45 x1,2_45 - p1 + p2 >= 0
 R171: 344 x1,2_45 - p1 + p2 <= 389
 R172: - 55 x1,2_55 - p1 + p2 >= 0
 R173: 344 x1,2_55 - p1 + p2 <= 399
 R174: - 70 x1,2_70 - p1 + p2 >= 0
 R175: 344 x1,2_70 - p1 + p2 <= 414
 R176: - 72 x1,2_72 - p1 + p2 >= 0
 R177: 344 x1,2_72 - p1 + p2 <= 416
 R178: p1 - p3 <= -1
 R179: - 2 x1,3_2 - p1 + p3 >= 0
 R180: 344 x1,3_2 - p1 + p3 <= 346
 R181: - 4 x1,3_4 - p1 + p3 >= 0
 R182: 344 x1,3_4 - p1 + p3 <= 348
 R183: - 17 x1,3_17 - p1 + p3 >= 0
 R184: 344 x1,3_17 - p1 + p3 <= 361
 R185: - 19 x1,3_19 - p1 + p3 >= 0
 R186: 344 x1,3_19 - p1 + p3 <= 363
 R187: - 20 x1,3_20 - p1 + p3 >= 0
 R188: 344 x1,3_20 - p1 + p3 <= 364
 R189: - 40 x1,3_40 - p1 + p3 >= 0
 R190: 344 x1,3_40 - p1 + p3 <= 384
 R191: - 45 x1,3_45 - p1 + p3 >= 0
 R192: 344 x1,3_45 - p1 + p3 <= 389
 R193: - 55 x1,3_55 - p1 + p3 >= 0
 R194: 344 x1,3_55 - p1 + p3 <= 399
 R195: - 70 x1,3_70 - p1 + p3 >= 0
 R196: 344 x1,3_70 - p1 + p3 <= 414
 R197: - 72 x1,3_72 - p1 + p3 >= 0
 R198: 344 x1,3_72 - p1 + p3 <= 416
 R199: p1 - p4 <= -1
 R200: - 2 x1,4_2 - p1 + p4 >= 0
 R201: 344 x1,4_2 - p1 + p4 <= 346
 R202: - 4 x1,4_4 - p1 + p4 >= 0
 R203: 344 x1,4_4 - p1 + p4 <= 348
 R204: - 17 x1,4_17 - p1 + p4 >= 0
 R205: 344 x1,4_17 - p1 + p4 <= 361
 R206: - 19 x1,4_19 - p1 + p4 >= 0
 R207: 344 x1,4_19 - p1 + p4 <= 363
 R208: - 20 x1,4_20 - p1 + p4 >= 0
 R209: 344 x1,4_20 - p1 + p4 <= 364
 R210: - 40 x1,4_40 - p1 + p4 >= 0
 R211: 344 x1,4_40 - p1 + p4 <= 384
 R212: - 45 x1,4_45 - p1 + p4 >= 0
 R213: 344 x1,4_45 - p1 + p4 <= 389
 R214: - 55 x1,4_55 - p1 + p4 >= 0
 R215: 344 x1,4_55 - p1 + p4 <= 399
 R216: - 70 x1,4_70 - p1 + p4 >= 0
 R217: 344 x1,4_70 - p1 + p4 <= 414
 R218: - 72 x1,4_72 - p1 + p4 >= 0
 R219: 344 x1,4_72 - p1 + p4 <= 416
 R220: p1 - p5 <= -1
 R221: - 2 x1,5_2 - p1 + p5 >= 0
 R222: 344 x1,5_2 - p1 + p5 <= 346
 R223: - 4 x1,5_4 - p1 + p5 >= 0
 R224: 344 x1,5_4 - p1 + p5 <= 348
 R225: - 17 x1,5_17 - p1 + p5 >= 0
 R226: 344 x1,5_17 - p1 + p5 <= 361
 R227: - 19 x1,5_19 - p1 + p5 >= 0
 R228: 344 x1,5_19 - p1 + p5 <= 363
 R229: - 20 x1,5_20 - p1 + p5 >= 0
 R230: 344 x1,5_20 - p1 + p5 <= 364
 R231: - 40 x1,5_40 - p1 + p5 >= 0
 R232: 344 x1,5_40 - p1 + p5 <= 384
 R233: - 45 x1,5_45 - p1 + p5 >= 0
 R234: 344 x1,5_45 - p1 + p5 <= 389
 R235: - 55 x1,5_55 - p1 + p5 >= 0
 R236: 344 x1,5_55 - p1 + p5 <= 399
 R237: - 70 x1,5_70 - p1 + p5 >= 0
 R238: 344 x1,5_70 - p1 + p5 <= 414
 R239: - 72 x1,5_72 - p1 + p5 >= 0
 R240: 344 x1,5_72 - p1 + p5 <= 416
 R241: p1 - p6 <= -1
 R242: - 2 x1,6_2 - p1 + p6 >= 0
 R243: 344 x1,6_2 - p1 + p6 <= 346
 R244: - 4 x1,6_4 - p1 + p6 >= 0
 R245: 344 x1,6_4 - p1 + p6 <= 348
 R246: - 17 x1,6_17 - p1 + p6 >= 0
 R247: 344 x1,6_17 - p1 + p6 <= 361
 R248: - 19 x1,6_19 - p1 + p6 >= 0
 R249: 344 x1,6_19 - p1 + p6 <= 363
 R250: - 20 x1,6_20 - p1 + p6 >= 0
 R251: 344 x1,6_20 - p1 + p6 <= 364
 R252: - 40 x1,6_40 - p1 + p6 >= 0
 R253: 344 x1,6_40 - p1 + p6 <= 384
 R254: - 45 x1,6_45 - p1 + p6 >= 0
 R255: 344 x1,6_45 - p1 + p6 <= 389
 R256: - 55 x1,6_55 - p1 + p6 >= 0
 R257: 344 x1,6_55 - p1 + p6 <= 399
 R258: - 70 x1,6_70 - p1 + p6 >= 0
 R259: 344 x1,6_70 - p1 + p6 <= 414
 R260: - 72 x1,6_72 - p1 + p6 >= 0
 R261: 344 x1,6_72 - p1 + p6 <= 416
 R262: p2 - p3 <= -1
 R263: - 2 x2,3_2 - p2 + p3 >= 0
 R264: 344 x2,3_2 - p2 + p3 <= 346
 R265: - 4 x2,3_4 - p2 + p3 >= 0
 R266: 344 x2,3_4 - p2 + p3 <= 348
 R267: - 17 x2,3_17 - p2 + p3 >= 0
 R268: 344 x2,3_17 - p2 + p3 <= 361
 R269: - 19 x2,3_19 - p2 + p3 >= 0
 R270: 344 x2,3_19 - p2 + p3 <= 363
 R271: - 20 x2,3_20 - p2 + p3 >= 0
 R272: 344 x2,3_20 - p2 + p3 <= 364
 R273: - 40 x2,3_40 - p2 + p3 >= 0
 R274: 344 x2,3_40 - p2 + p3 <= 384
 R275: - 45 x2,3_45 - p2 + p3 >= 0
 R276: 344 x2,3_45 - p2 + p3 <= 389
 R277: - 55 x2,3_55 - p2 + p3 >= 0
 R278: 344 x2,3_55 - p2 + p3 <= 399
 R279: - 70 x2,3_70 - p2 + p3 >= 0
 R280: 344 x2,3_70 - p2 + p3 <= 414
 R281: - 72 x2,3_72 - p2 + p3 >= 0
 R282: 344 x2,3_72 - p2 + p3 <= 416
 R283: p2 - p4 <= -1
 R284: - 2 x2,4_2 - p2 + p4 >= 0
 R285: 344 x2,4_2 - p2 + p4 <= 346
 R286: - 4 x2,4_4 - p2 + p4 >= 0
 R287: 344 x2,4_4 - p2 + p4 <= 348
 R288: - 17 x2,4_17 - p2 + p4 >= 0
 R289: 344 x2,4_17 - p2 + p4 <= 361
 R290: - 19 x2,4_19 - p2 + p4 >= 0
 R291: 344 x2,4_19 - p2 + p4 <= 363
 R292: - 20 x2,4_20 - p2 + p4 >= 0
 R293: 344 x2,4_20 - p2 + p4 <= 364
 R294: - 40 x2,4_40 - p2 + p4 >= 0
 R295: 344 x2,4_40 - p2 + p4 <= 384
 R296: - 45 x2,4_45 - p2 + p4 >= 0
 R297: 344 x2,4_45 - p2 + p4 <= 389
 R298: - 55 x2,4_55 - p2 + p4 >= 0
 R299: 344 x2,4_55 - p2 + p4 <= 399
 R300: - 70 x2,4_70 - p2 + p4 >= 0
 R301: 344 x2,4_70 - p2 + p4 <= 414
 R302: - 72 x2,4_72 - p2 + p4 >= 0
 R303: 344 x2,4_72 - p2 + p4 <= 416
 R304: p2 - p5 <= -1
 R305: - 2 x2,5_2 - p2 + p5 >= 0
 R306: 344 x2,5_2 - p2 + p5 <= 346
 R307: - 4 x2,5_4 - p2 + p5 >= 0
 R308: 344 x2,5_4 - p2 + p5 <= 348
 R309: - 17 x2,5_17 - p2 + p5 >= 0
 R310: 344 x2,5_17 - p2 + p5 <= 361
 R311: - 19 x2,5_19 - p2 + p5 >= 0
 R312: 344 x2,5_19 - p2 + p5 <= 363
 R313: - 20 x2,5_20 - p2 + p5 >= 0
 R314: 344 x2,5_20 - p2 + p5 <= 364
 R315: - 40 x2,5_40 - p2 + p5 >= 0
 R316: 344 x2,5_40 - p2 + p5 <= 384
 R317: - 45 x2,5_45 - p2 + p5 >= 0
 R318: 344 x2,5_45 - p2 + p5 <= 389
 R319: - 55 x2,5_55 - p2 + p5 >= 0
 R320: 344 x2,5_55 - p2 + p5 <= 399
 R321: - 70 x2,5_70 - p2 + p5 >= 0
 R322: 344 x2,5_70 - p2 + p5 <= 414
 R323: - 72 x2,5_72 - p2 + p5 >= 0
 R324: 344 x2,5_72 - p2 + p5 <= 416
 R325: p2 - p6 <= -1
 R326: - 2 x2,6_2 - p2 + p6 >= 0
 R327: 344 x2,6_2 - p2 + p6 <= 346
 R328: - 4 x2,6_4 - p2 + p6 >= 0
 R329: 344 x2,6_4 - p2 + p6 <= 348
 R330: - 17 x2,6_17 - p2 + p6 >= 0
 R331: 344 x2,6_17 - p2 + p6 <= 361
 R332: - 19 x2,6_19 - p2 + p6 >= 0
 R333: 344 x2,6_19 - p2 + p6 <= 363
 R334: - 20 x2,6_20 - p2 + p6 >= 0
 R335: 344 x2,6_20 - p2 + p6 <= 364
 R336: - 40 x2,6_40 - p2 + p6 >= 0
 R337: 344 x2,6_40 - p2 + p6 <= 384
 R338: - 45 x2,6_45 - p2 + p6 >= 0
 R339: 344 x2,6_45 - p2 + p6 <= 389
 R340: - 55 x2,6_55 - p2 + p6 >= 0
 R341: 344 x2,6_55 - p2 + p6 <= 399
 R342: - 70 x2,6_70 - p2 + p6 >= 0
 R343: 344 x2,6_70 - p2 + p6 <= 414
 R344: - 72 x2,6_72 - p2 + p6 >= 0
 R345: 344 x2,6_72 - p2 + p6 <= 416
 R346: p3 - p4 <= -1
 R347: - 2 x3,4_2 - p3 + p4 >= 0
 R348: 344 x3,4_2 - p3 + p4 <= 346
 R349: - 4 x3,4_4 - p3 + p4 >= 0
 R350: 344 x3,4_4 - p3 + p4 <= 348
 R351: - 17 x3,4_17 - p3 + p4 >= 0
 R352: 344 x3,4_17 - p3 + p4 <= 361
 R353: - 19 x3,4_19 - p3 + p4 >= 0
 R354: 344 x3,4_19 - p3 + p4 <= 363
 R355: - 20 x3,4_20 - p3 + p4 >= 0
 R356: 344 x3,4_20 - p3 + p4 <= 364
 R357: - 40 x3,4_40 - p3 + p4 >= 0
 R358: 344 x3,4_40 - p3 + p4 <= 384
 R359: - 45 x3,4_45 - p3 + p4 >= 0
 R360: 344 x3,4_45 - p3 + p4 <= 389
 R361: - 55 x3,4_55 - p3 + p4 >= 0
 R362: 344 x3,4_55 - p3 + p4 <= 399
 R363: - 70 x3,4_70 - p3 + p4 >= 0
 R364: 344 x3,4_70 - p3 + p4 <= 414
 R365: - 72 x3,4_72 - p3 + p4 >= 0
 R366: 344 x3,4_72 - p3 + p4 <= 416
 R367: p3 - p5 <= -1
 R368: - 2 x3,5_2 - p3 + p5 >= 0
 R369: 344 x3,5_2 - p3 + p5 <= 346
 R370: - 4 x3,5_4 - p3 + p5 >= 0
 R371: 344 x3,5_4 - p3 + p5 <= 348
 R372: - 17 x3,5_17 - p3 + p5 >= 0
 R373: 344 x3,5_17 - p3 + p5 <= 361
 R374: - 19 x3,5_19 - p3 + p5 >= 0
 R375: 344 x3,5_19 - p3 + p5 <= 363
 R376: - 20 x3,5_20 - p3 + p5 >= 0
 R377: 344 x3,5_20 - p3 + p5 <= 364
 R378: - 40 x3,5_40 - p3 + p5 >= 0
 R379: 344 x3,5_40 - p3 + p5 <= 384
 R380: - 45 x3,5_45 - p3 + p5 >= 0
 R381: 344 x3,5_45 - p3 + p5 <= 389
 R382: - 55 x3,5_55 - p3 + p5 >= 0
 R383: 344 x3,5_55 - p3 + p5 <= 399
 R384: - 70 x3,5_70 - p3 + p5 >= 0
 R385: 344 x3,5_70 - p3 + p5 <= 414
 R386: - 72 x3,5_72 - p3 + p5 >= 0
 R387: 344 x3,5_72 - p3 + p5 <= 416
 R388: p3 - p6 <= -1
 R389: - 2 x3,6_2 - p3 + p6 >= 0
 R390: 344 x3,6_2 - p3 + p6 <= 346
 R391: - 4 x3,6_4 - p3 + p6 >= 0
 R392: 344 x3,6_4 - p3 + p6 <= 348
 R393: - 17 x3,6_17 - p3 + p6 >= 0
 R394: 344 x3,6_17 - p3 + p6 <= 361
 R395: - 19 x3,6_19 - p3 + p6 >= 0
 R396: 344 x3,6_19 - p3 + p6 <= 363
 R397: - 20 x3,6_20 - p3 + p6 >= 0
 R398: 344 x3,6_20 - p3 + p6 <= 364
 R399: - 40 x3,6_40 - p3 + p6 >= 0
 R400: 344 x3,6_40 - p3 + p6 <= 384
 R401: - 45 x3,6_45 - p3 + p6 >= 0
 R402: 344 x3,6_45 - p3 + p6 <= 389
 R403: - 55 x3,6_55 - p3 + p6 >= 0
 R404: 344 x3,6_55 - p3 + p6 <= 399
 R405: - 70 x3,6_70 - p3 + p6 >= 0
 R406: 344 x3,6_70 - p3 + p6 <= 414
 R407: - 72 x3,6_72 - p3 + p6 >= 0
 R408: 344 x3,6_72 - p3 + p6 <= 416
 R409: p4 - p5 <= -1
 R410: - 2 x4,5_2 - p4 + p5 >= 0
 R411: 344 x4,5_2 - p4 + p5 <= 346
 R412: - 4 x4,5_4 - p4 + p5 >= 0
 R413: 344 x4,5_4 - p4 + p5 <= 348
 R414: - 17 x4,5_17 - p4 + p5 >= 0
 R415: 344 x4,5_17 - p4 + p5 <= 361
 R416: - 19 x4,5_19 - p4 + p5 >= 0
 R417: 344 x4,5_19 - p4 + p5 <= 363
 R418: - 20 x4,5_20 - p4 + p5 >= 0
 R419: 344 x4,5_20 - p4 + p5 <= 364
 R420: - 40 x4,5_40 - p4 + p5 >= 0
 R421: 344 x4,5_40 - p4 + p5 <= 384
 R422: - 45 x4,5_45 - p4 + p5 >= 0
 R423: 344 x4,5_45 - p4 + p5 <= 389
 R424: - 55 x4,5_55 - p4 + p5 >= 0
 R425: 344 x4,5_55 - p4 + p5 <= 399
 R426: - 70 x4,5_70 - p4 + p5 >= 0
 R427: 344 x4,5_70 - p4 + p5 <= 414
 R428: - 72 x4,5_72 - p4 + p5 >= 0
 R429: 344 x4,5_72 - p4 + p5 <= 416
 R430: p4 - p6 <= -1
 R431: - 2 x4,6_2 - p4 + p6 >= 0
 R432: 344 x4,6_2 - p4 + p6 <= 346
 R433: - 4 x4,6_4 - p4 + p6 >= 0
 R434: 344 x4,6_4 - p4 + p6 <= 348
 R435: - 17 x4,6_17 - p4 + p6 >= 0
 R436: 344 x4,6_17 - p4 + p6 <= 361
 R437: - 19 x4,6_19 - p4 + p6 >= 0
 R438: 344 x4,6_19 - p4 + p6 <= 363
 R439: - 20 x4,6_20 - p4 + p6 >= 0
 R440: 344 x4,6_20 - p4 + p6 <= 364
 R441: - 40 x4,6_40 - p4 + p6 >= 0
 R442: 344 x4,6_40 - p4 + p6 <= 384
 R443: - 45 x4,6_45 - p4 + p6 >= 0
 R444: 344 x4,6_45 - p4 + p6 <= 389
 R445: - 55 x4,6_55 - p4 + p6 >= 0
 R446: 344 x4,6_55 - p4 + p6 <= 399
 R447: - 70 x4,6_70 - p4 + p6 >= 0
 R448: 344 x4,6_70 - p4 + p6 <= 414
 R449: - 72 x4,6_72 - p4 + p6 >= 0
 R450: 344 x4,6_72 - p4 + p6 <= 416
 R451: p5 - p6 <= -1
 R452: - 2 x5,6_2 - p5 + p6 >= 0
 R453: 344 x5,6_2 - p5 + p6 <= 346
 R454: - 4 x5,6_4 - p5 + p6 >= 0
 R455: 344 x5,6_4 - p5 + p6 <= 348
 R456: - 17 x5,6_17 - p5 + p6 >= 0
 R457: 344 x5,6_17 - p5 + p6 <= 361
 R458: - 19 x5,6_19 - p5 + p6 >= 0
 R459: 344 x5,6_19 - p5 + p6 <= 363
 R460: - 20 x5,6_20 - p5 + p6 >= 0
 R461: 344 x5,6_20 - p5 + p6 <= 364
 R462: - 40 x5,6_40 - p5 + p6 >= 0
 R463: 344 x5,6_40 - p5 + p6 <= 384
 R464: - 45 x5,6_45 - p5 + p6 >= 0
 R465: 344 x5,6_45 - p5 + p6 <= 389
 R466: - 55 x5,6_55 - p5 + p6 >= 0
 R467: 344 x5,6_55 - p5 + p6 <= 399
 R468: - 70 x5,6_70 - p5 + p6 >= 0
 R469: 344 x5,6_70 - p5 + p6 <= 414
 R470: - 72 x5,6_72 - p5 + p6 >= 0
 R471: 344 x5,6_72 - p5 + p6 <= 416
Bounds
Binaries
 x0,1_2 x0,1_4 x0,1_17 x0,1_19 x0,1_20 x0,1_40 x0,1_45 x0,1_55 x0,1_70
 x0,1_72 x0,2_2 x0,2_4 x0,2_17 x0,2_19 x0,2_20 x0,2_40 x0,2_45 x0,2_55
 x0,2_70 x0,2_72 x0,3_2 x0,3_4 x0,3_17 x0,3_19 x0,3_20 x0,3_40 x0,3_45
 x0,3_55 x0,3_70 x0,3_72 x0,4_2 x0,4_4 x0,4_17 x0,4_19 x0,4_20 x0,4_40
 x0,4_45 x0,4_55 x0,4_70 x0,4_72 x0,5_2 x0,5_4 x0,5_17 x0,5_19 x0,5_20
 x0,5_40 x0,5_45 x0,5_55 x0,5_70 x0,5_72 x0,6_2 x0,6_4 x0,6_17 x0,6_19
 x0,6_20 x0,6_40 x0,6_45 x0,6_55 x0,6_70 x0,6_72 x1,2_2 x1,2_4 x1,2_17
 x1,2_19 x1,2_20 x1,2_40 x1,2_45 x1,2_55 x1,2_70 x1,2_72 x1,3_2 x1,3_4
 x1,3_17 x1,3_19 x1,3_20 x1,3_40 x1,3_45 x1,3_55 x1,3_70 x1,3_72 x1,4_2
 x1,4_4 x1,4_17 x1,4_19 x1,4_20 x1,4_40 x1,4_45 x1,4_55 x1,4_70 x1,4_72
 x1,5_2 x1,5_4 x1,5_17 x1,5_19 x1,5_20 x1,5_40 x1,5_45 x1,5_55 x1,5_70
 x1,5_72 x1,6_2 x1,6_4 x1,6_17 x1,6_19 x1,6_20 x1,6_40 x1,6_45 x1,6_55
 x1,6_70 x1,6_72 x2,3_2 x2,3_4 x2,3_17 x2,3_19 x2,3_20 x2,3_40 x2,3_45
 x2,3_55 x2,3_70 x2,3_72 x2,4_2 x2,4_4 x2,4_17 x2,4_19 x2,4_20 x2,4_40
 x2,4_45 x2,4_55 x2,4_70 x2,4_72 x2,5_2 x2,5_4 x2,5_17 x2,5_19 x2,5_20
 x2,5_40 x2,5_45 x2,5_55 x2,5_70 x2,5_72 x2,6_2 x2,6_4 x2,6_17 x2,6_19
 x2,6_20 x2,6_40 x2,6_45 x2,6_55 x2,6_70 x2,6_72 x3,4_2 x3,4_4 x3,4_17
 x3,4_19 x3,4_20 x3,4_40 x3,4_45 x3,4_55 x3,4_70 x3,4_72 x3,5_2 x3,5_4
 x3,5_17 x3,5_19 x3,5_20 x3,5_40 x3,5_45 x3,5_55 x3,5_70 x3,5_72 x3,6_2
 x3,6_4 x3,6_17 x3,6_19 x3,6_20 x3,6_40 x3,6_45 x3,6_55 x3,6_70 x3,6_72
 x4,5_2 x4,5_4 x4,5_17 x4,5_19 x4,5_20 x4,5_40 x4,5_45 x4,5_55 x4,5_70
 x4,5_72 x4,6_2 x4,6_4 x4,6_17 x4,6_19 x4,6_20 x4,6_40 x4,6_45 x4,6_55
 x4,6_70 x4,6_72 x5,6_2 x5,6_4 x5,6_17 x5,6_19 x5,6_20 x5,6_40 x5,6_45
 x5,6_55 x5,6_70 x5,6_72
Generals
 p0 p1 p2 p3 p4 p5 p6
End
