logs/drand/max/drand-10-075-1.sol
# Objective value = 10
x0,1_2 1
x0,1_4 0
x0,1_17 0
x0,1_19 0
x0,1_20 0
x0,1_40 0
x0,1_45 0
x0,1_55 0
x0,1_70 0
x0,1_72 0
x0,2_2 0
x0,2_4 1
x0,2_17 0
x0,2_19 0
x0,2_20 0
x0,2_40 0
x0,2_45 0
x0,2_55 0
x0,2_70 0
x0,2_72 0
x0,3_2 0
x0,3_4 0
x0,3_17 0
x0,3_19 1
x0,3_20 0
x0,3_40 0
x0,3_45 0
x0,3_55 0
x0,3_70 0
x0,3_72 0
x0,4_2 0
x0,4_4 0
x0,4_17 0
x0,4_19 0
x0,4_20 0
x0,4_40 0
x0,4_45 0
x0,4_55 0
x0,4_70 0
x0,4_72 0
x0,5_2 0
x0,5_4 0
x0,5_17 0
x0,5_19 0
x0,5_20 0
x0,5_40 0
x0,5_45 0
x0,5_55 0
x0,5_70 0
x0,5_72 0
x0,6_2 0
x0,6_4 0
x0,6_17 0
x0,6_19 0
x0,6_20 0
x0,6_40 0
x0,6_45 0
x0,6_55 0
x0,6_70 0
x0,6_72 0
x1,2_2 0
x1,2_4 0
x1,2_17 0
x1,2_19 0
x1,2_20 0
x1,2_40 0
x1,2_45 0
x1,2_55 0
x1,2_70 0
x1,2_72 0
x1,3_2 0
x1,3_4 0
x1,3_17 1
x1,3_19 0
x1,3_20 0
x1,3_40 0
x1,3_45 0
x1,3_55 0
x1,3_70 0
x1,3_72 0
x1,4_2 0
x1,4_4 0
x1,4_17 0
x1,4_19 0
x1,4_20 0
x1,4_40 0
x1,4_45 0
x1,4_55 0
x1,4_70 0
x1,4_72 0
x1,5_2 0
x1,5_4 0
x1,5_17 0
x1,5_19 0
x1,5_20 0
x1,5_40 0
x1,5_45 0
x1,5_55 0
x1,5_70 0
x1,5_72 0
x1,6_2 0
x1,6_4 0
x1,6_17 0
x1,6_19 0
x1,6_20 0
x1,6_40 0
x1,6_45 0
x1,6_55 0
x1,6_70 0
x1,6_72 1
x2,3_2 0
x2,3_4 0
x2,3_17 0
x2,3_19 0
x2,3_20 0
x2,3_40 0
x2,3_45 0
x2,3_55 0
x2,3_70 0
x2,3_72 0
x2,4_2 0
x2,4_4 0
x2,4_17 0
x2,4_19 0
x2,4_20 1
x2,4_40 0
x2,4_45 0
x2,4_55 0
x2,4_70 0
x2,4_72 0
x2,5_2 0
x2,5_4 0
x2,5_17 0
x2,5_19 0
x2,5_20 0
x2,5_40 0
x2,5_45 0
x2,5_55 0
x2,5_70 0
x2,5_72 0
x2,6_2 0
x2,6_4 0
x2,6_17 0
x2,6_19 0
x2,6_20 0
x2,6_40 0
x2,6_45 0
x2,6_55 0
x2,6_70 1
x2,6_72 0
x3,4_2 0
x3,4_4 0
x3,4_17 0
x3,4_19 0
x3,4_20 0
x3,4_40 0
x3,4_45 0
x3,4_55 0
x3,4_70 0
x3,4_72 0
x3,5_2 0
x3,5_4 0
x3,5_17 0
x3,5_19 0
x3,5_20 0
x3,5_40 0
x3,5_45 1
x3,5_55 0
x3,5_70 0
x3,5_72 0
x3,6_2 0
x3,6_4 0
x3,6_17 0
x3,6_19 0
x3,6_20 0
x3,6_40 0
x3,6_45 0
x3,6_55 1
x3,6_70 0
x3,6_72 0
x4,5_2 0
x4,5_4 0
x4,5_17 0
x4,5_19 0
x4,5_20 0
x4,5_40 1
x4,5_45 0
x4,5_55 0
x4,5_70 0
x4,5_72 0
x4,6_2 0
x4,6_4 0
x4,6_17 0
x4,6_19 0
x4,6_20 0
x4,6_40 0
x4,6_45 0
x4,6_55 0
x4,6_70 0
x4,6_72 0
x5,6_2 0
x5,6_4 0
x5,6_17 0
x5,6_19 0
x5,6_20 0
x5,6_40 0
x5,6_45 0
x5,6_55 0
x5,6_70 0
x5,6_72 0
p0 0
p1 2
p2 4
p3 19
p4 24
p5 64
p6 74
